2
4
20
1 1.3 1.55 1.75 2.1
30 48 24 44 13 11 20 5 25 23 31 45 10 15 27 33 13 28 14 20 13 17 27 38 38 45 5 8 27 15 49 28 47 42 44 6 43 39 7 40 6 41 32 31 8 42 26 46 12 24 26 27 8 6 13 39 48 6 32 30 32 35 36 43 31 24 30 33 10 49 30 28 45 37 21 31 14 16 21 29 